
Value of objective function: 0.00623892

Actual values of the variables:
pL1_div_from_law       0.00623892
comp_pos0                       0
comp_neg0                       0
comp_pos1                       0
comp_neg1                       0
comp_pos2                       0
comp_neg2                       0
comp_pos3                       0
comp_neg3                       0
comp_pos4                       0
comp_neg4                       0
comp_pos5                       0
comp_neg5                       0
comp_pos6              0.00623892
comp_neg6                       0
comp_pos7                       0
comp_neg7                       0
comp_pos8                       0
comp_neg8                       0
comp_pos9                       0
comp_neg9                       0
comp_pos10                      0
comp_neg10                      0
comp_pos11                      0
comp_neg11                      0
comp_pos12                      0
comp_neg12                      0
comp_pos13                      0
comp_neg13                      0
z_c0_t0               1.32138e+10
p0_c0_t0               1.7304e+09
p1_c0_t0              3.04574e+09
p2_c0_t0              7.62301e+09
p3_c0_t0              8.14677e+08
diff0                           0
normdiff0                       0
z_c0_t1               1.47752e+10
p0_c0_t1              1.48874e+09
p1_c0_t1              3.38173e+09
p2_c0_t1              8.59147e+09
p3_c0_t1              1.31325e+09
diff1                           0
normdiff1                       0
z_c1_t0               1.65566e+10
p0_c1_t0              1.73223e+09
p1_c1_t0              3.91352e+09
p2_c1_t0              1.05538e+10
p3_c1_t0              3.56999e+08
diff2                           0
normdiff2                       0
z_c1_t1               1.94959e+10
p0_c1_t1              1.76321e+09
p1_c1_t1              5.56748e+09
p2_c1_t1              1.16961e+10
p3_c1_t1              4.69124e+08
diff3                           0
normdiff3                       0
z_c2_t0               7.24754e+09
p0_c2_t0               5.9102e+08
p1_c2_t0              1.59697e+09
p2_c2_t0              4.74397e+09
p3_c2_t0              3.15581e+08
diff4                           0
normdiff4                       0
z_c2_t1               7.97123e+09
p0_c2_t1              4.79785e+08
p1_c2_t1              1.84817e+09
p2_c2_t1              5.08994e+09
p3_c2_t1              5.53327e+08
diff5                           0
normdiff5                       0
z_c3_t0               1.22612e+10
p0_c3_t0               1.0693e+09
p1_c3_t0              2.73021e+09
p2_c3_t0              7.77075e+09
p3_c3_t0              7.67428e+08
diff6                 7.64966e+07
normdiff6              0.00623892
z_c3_t1               1.42798e+10
p0_c3_t1              1.22157e+09
p1_c3_t1              2.79606e+09
p2_c3_t1              7.87416e+09
p3_c3_t1              2.38798e+09
diff7                           0
normdiff7                       0
z_c4_t0               7.97197e+09
p0_c4_t0               4.7196e+08
p1_c4_t0              3.05513e+09
p2_c4_t0              4.29927e+09
p3_c4_t0              1.45606e+08
diff8                           0
normdiff8                       0
z_c4_t1                8.9819e+09
p0_c4_t1              4.88027e+08
p1_c4_t1              2.81267e+09
p2_c4_t1              5.46412e+09
p3_c4_t1              2.17076e+08
diff9                           0
normdiff9                       0
z_c5_t0               1.00642e+10
p0_c5_t0              8.32285e+08
p1_c5_t0              2.55231e+09
p2_c5_t0              6.61895e+09
p3_c5_t0              6.06111e+07
diff10                          0
normdiff10                      0
z_c5_t1                1.2016e+10
p0_c5_t1              6.14106e+08
p1_c5_t1              2.55341e+09
p2_c5_t1              8.22685e+09
p3_c5_t1              6.21652e+08
diff11                          0
normdiff11                      0
z_c6_t0               1.81204e+10
p0_c6_t0              1.51968e+09
p1_c6_t0              3.25667e+09
p2_c6_t0              1.29997e+10
p3_c6_t0              3.44275e+08
diff12                          0
normdiff12                      0
z_c6_t1               2.06345e+10
p0_c6_t1              1.63408e+09
p1_c6_t1              2.95545e+09
p2_c6_t1              1.57415e+10
p3_c6_t1              3.03464e+08
diff13                          0
normdiff13                      0
